(set-info :status unsat)
(declare-datatypes ((T 0)) ((
  (f0)
  (f1 (proj0f1 T) (proj1f1 T) (proj2f1 T) (proj3f1 T))
  (f2 (proj0f2 T) (proj1f2 T) (proj2f2 T) (proj3f2 T)))))
(assert (exists ((y5379 T) (y5375 T) (y5385 T) (y5377 T) (y5376 T) (y5384 T) (y5378 T) (y5386 T) (y5387 T) (y5380 T) (y5381 T) (y5382 T) (y5383 T)) 
  (or 
    (and (= y5375 (f1 y5375 (f1 PLACEHOLDER PLACEHOLDER PLACEHOLDER PLACEHOLDER) y5376 PLACEHOLDER)) (= y5376 (f1 y5377 (f1 (f2 PLACEHOLDER PLACEHOLDER PLACEHOLDER PLACEHOLDER) (f2 PLACEHOLDER PLACEHOLDER PLACEHOLDER PLACEHOLDER) (f1 PLACEHOLDER PLACEHOLDER PLACEHOLDER PLACEHOLDER) (f1 PLACEHOLDER PLACEHOLDER PLACEHOLDER PLACEHOLDER)) (f2 (f2 PLACEHOLDER PLACEHOLDER PLACEHOLDER (f2 PLACEHOLDER PLACEHOLDER PLACEHOLDER PLACEHOLDER)) (f1 PLACEHOLDER (f2 PLACEHOLDER PLACEHOLDER PLACEHOLDER PLACEHOLDER) (f1 PLACEHOLDER PLACEHOLDER PLACEHOLDER PLACEHOLDER) (f1 PLACEHOLDER PLACEHOLDER PLACEHOLDER PLACEHOLDER)) (f2 (f1 PLACEHOLDER PLACEHOLDER PLACEHOLDER PLACEHOLDER) (f1 PLACEHOLDER PLACEHOLDER PLACEHOLDER PLACEHOLDER) (f1 PLACEHOLDER PLACEHOLDER PLACEHOLDER PLACEHOLDER) (f2 PLACEHOLDER PLACEHOLDER PLACEHOLDER PLACEHOLDER)) PLACEHOLDER) (f1 (f1 PLACEHOLDER (f2 PLACEHOLDER PLACEHOLDER PLACEHOLDER PLACEHOLDER) PLACEHOLDER (f1 PLACEHOLDER PLACEHOLDER PLACEHOLDER PLACEHOLDER)) (f2 PLACEHOLDER PLACEHOLDER PLACEHOLDER PLACEHOLDER) (f1 PLACEHOLDER PLACEHOLDER PLACEHOLDER PLACEHOLDER) (f1 PLACEHOLDER PLACEHOLDER PLACEHOLDER PLACEHOLDER)))) (= y5377 (f1 y5378 (f2 (f2 PLACEHOLDER PLACEHOLDER PLACEHOLDER PLACEHOLDER) PLACEHOLDER (f2 PLACEHOLDER PLACEHOLDER PLACEHOLDER PLACEHOLDER) PLACEHOLDER) (f1 PLACEHOLDER PLACEHOLDER PLACEHOLDER PLACEHOLDER) (f2 (f1 PLACEHOLDER PLACEHOLDER PLACEHOLDER PLACEHOLDER) PLACEHOLDER PLACEHOLDER PLACEHOLDER))) (= y5378 (f1 y5379 PLACEHOLDER (f1 PLACEHOLDER PLACEHOLDER PLACEHOLDER PLACEHOLDER) PLACEHOLDER)) (= y5379 (f1 y5375 PLACEHOLDER PLACEHOLDER PLACEHOLDER))) 
    (and (= y5380 (f1 (f1 y5381 PLACEHOLDER (f2 (f2 PLACEHOLDER PLACEHOLDER PLACEHOLDER PLACEHOLDER) (f1 PLACEHOLDER PLACEHOLDER PLACEHOLDER PLACEHOLDER) (f1 PLACEHOLDER PLACEHOLDER PLACEHOLDER PLACEHOLDER) (f1 PLACEHOLDER PLACEHOLDER PLACEHOLDER PLACEHOLDER)) (f2 PLACEHOLDER (f1 PLACEHOLDER PLACEHOLDER PLACEHOLDER PLACEHOLDER) PLACEHOLDER PLACEHOLDER)) (f1 PLACEHOLDER (f2 PLACEHOLDER PLACEHOLDER PLACEHOLDER PLACEHOLDER) PLACEHOLDER PLACEHOLDER) (f1 PLACEHOLDER PLACEHOLDER PLACEHOLDER PLACEHOLDER) (f2 (f1 (f2 PLACEHOLDER PLACEHOLDER PLACEHOLDER PLACEHOLDER) (f1 PLACEHOLDER PLACEHOLDER PLACEHOLDER PLACEHOLDER) (f1 PLACEHOLDER PLACEHOLDER PLACEHOLDER PLACEHOLDER) PLACEHOLDER) PLACEHOLDER PLACEHOLDER (f2 PLACEHOLDER (f2 PLACEHOLDER PLACEHOLDER PLACEHOLDER PLACEHOLDER) (f2 PLACEHOLDER PLACEHOLDER PLACEHOLDER PLACEHOLDER) (f2 PLACEHOLDER PLACEHOLDER PLACEHOLDER PLACEHOLDER))))) (= y5381 (f1 y5382 (f2 PLACEHOLDER PLACEHOLDER PLACEHOLDER PLACEHOLDER) PLACEHOLDER (f2 PLACEHOLDER PLACEHOLDER PLACEHOLDER PLACEHOLDER))) (= y5382 (f1 y5380 PLACEHOLDER PLACEHOLDER PLACEHOLDER))) (= y5383 (f2 y5383 PLACEHOLDER PLACEHOLDER PLACEHOLDER)) 
    (and (= y5384 (f2 (f1 (f2 (f2 (f2 y5384 PLACEHOLDER PLACEHOLDER PLACEHOLDER) y5385 PLACEHOLDER (f2 PLACEHOLDER PLACEHOLDER PLACEHOLDER PLACEHOLDER)) PLACEHOLDER PLACEHOLDER (f1 PLACEHOLDER PLACEHOLDER PLACEHOLDER PLACEHOLDER)) PLACEHOLDER PLACEHOLDER (f1 (f1 PLACEHOLDER PLACEHOLDER (f1 PLACEHOLDER PLACEHOLDER PLACEHOLDER PLACEHOLDER) PLACEHOLDER) (f1 PLACEHOLDER PLACEHOLDER PLACEHOLDER PLACEHOLDER) PLACEHOLDER (f2 PLACEHOLDER PLACEHOLDER PLACEHOLDER PLACEHOLDER))) (f1 PLACEHOLDER PLACEHOLDER PLACEHOLDER PLACEHOLDER) PLACEHOLDER PLACEHOLDER)) (= y5385 (f2 y5384 PLACEHOLDER PLACEHOLDER PLACEHOLDER))) (= y5386 (f1 y5386 y5386 PLACEHOLDER PLACEHOLDER)) (= y5387 (f1 y5387 PLACEHOLDER PLACEHOLDER PLACEHOLDER)))))
(check-sat)
